<number of tasks>
20

<cycle time>
1000

<order strength>
0,274


<task times>
1 185
2 716
3 548
4 571
5 831
6 547
7 362
8 444
9 224
10 367
11 554
12 672
13 413
14 683
15 352
16 555
17 591
18 525
19 381
20 461

<precedence relations>
1,13
2,13
4,7
4,9
6,8
7,10
7,11
7,12
10,13
11,13
12,14
12,15
12,16
13,17
13,18
13,19
13,20

<end>
